(set-option :print-success false)
(set-logic QF_UF)
(declare-sort x77 0)
(declare-sort x7 0)
(declare-fun x40 () x7)
(declare-fun x149 () x7)
(declare-fun x6 () x7)
(declare-fun x91 (x7 x7) x7)
(declare-fun x27 () x7)
(declare-fun x29 (x7 x7) x7)
(declare-fun x156 () x7)
(assert (or (and (and (and (not (= (x91 (x91 x149 x156) x156) x149)) (and (not (= x27 (x91 (x91 x27 x156) x156))) (not (= x6 (x91 (x91 x6 x156) x156))))) (not (= (x91 (x91 x40 x156) x156) x40))) (not (= (x91 (x91 x156 x156) x156) x156))) (or (or (or (and (not (= x156 (x91 (x91 x156 x27) x27))) (and (and (and (not (= x27 (x91 (x91 x27 x27) x27))) (not (= (x91 (x91 x6 x27) x27) x6))) (not (= (x91 (x91 x149 x27) x27) x149))) (not (= (x91 (x91 x40 x27) x27) x40)))) (and (not (= x156 (x91 (x91 x156 x6) x6))) (and (not (= x40 (x91 (x91 x40 x6) x6))) (and (and (not (= (x91 (x91 x27 x6) x6) x27)) (not (= x6 (x91 (x91 x6 x6) x6)))) (not (= x149 (x91 (x91 x149 x6) x6))))))) (and (not (= (x91 (x91 x156 x149) x149) x156)) (and (not (= x40 (x91 (x91 x40 x149) x149))) (and (not (= x149 (x91 (x91 x149 x149) x149))) (and (not (= x27 (x91 (x91 x27 x149) x149))) (not (= x6 (x91 (x91 x6 x149) x149)))))))) (and (and (not (= x40 (x91 (x91 x40 x40) x40))) (and (and (not (= x6 (x91 (x91 x6 x40) x40))) (not (= (x91 (x91 x27 x40) x40) x27))) (not (= x149 (x91 (x91 x149 x40) x40))))) (not (= (x91 (x91 x156 x40) x40) x156))))))
(assert (or (and (not (= x156 (x91 x156 (x91 x156 x156)))) (and (not (= (x91 x40 (x91 x156 x40)) x156)) (and (and (not (= (x91 x27 (x91 x156 x27)) x156)) (not (= (x91 x6 (x91 x156 x6)) x156))) (not (= x156 (x91 x149 (x91 x156 x149))))))) (or (or (and (not (= (x91 x156 (x91 x149 x156)) x149)) (and (not (= x149 (x91 x40 (x91 x149 x40)))) (and (and (not (= (x91 x27 (x91 x149 x27)) x149)) (not (= (x91 x6 (x91 x149 x6)) x149))) (not (= (x91 x149 (x91 x149 x149)) x149))))) (or (and (and (not (= x6 (x91 x40 (x91 x6 x40)))) (and (not (= x6 (x91 x149 (x91 x6 x149)))) (and (not (= x6 (x91 x27 (x91 x6 x27)))) (not (= x6 (x91 x6 (x91 x6 x6))))))) (not (= (x91 x156 (x91 x6 x156)) x6))) (and (not (= x27 (x91 x156 (x91 x27 x156)))) (and (and (and (not (= x27 (x91 x6 (x91 x27 x6)))) (not (= x27 (x91 x27 (x91 x27 x27))))) (not (= (x91 x149 (x91 x27 x149)) x27))) (not (= (x91 x40 (x91 x27 x40)) x27)))))) (and (not (= x40 (x91 x156 (x91 x40 x156)))) (and (and (and (not (= (x91 x27 (x91 x40 x27)) x40)) (not (= x40 (x91 x6 (x91 x40 x6))))) (not (= (x91 x149 (x91 x40 x149)) x40))) (not (= (x91 x40 (x91 x40 x40)) x40)))))))
(assert (not (and (and (and (= (x91 x156 x149) x156) (and (= (x91 x156 x6) x40) (and (= (x91 x156 x27) x149) (and (and (= (x91 x40 x40) x149) (and (= x40 (x91 x40 x149)) (and (and (= (x91 x40 x27) x27) (and (= (x91 x149 x156) x149) (and (and (and (and (and (= (x91 x6 x156) x40) (and (and (and (= (x91 x6 x6) x6) (and (and (= x156 (x91 x27 x156)) (and (= (x91 x27 x40) x40) (and (= (x91 x27 x149) x27) (and (= x149 (x91 x27 x6)) (= x6 (x91 x27 x27)))))) (= (x91 x6 x27) x156))) (= x149 (x91 x6 x149))) (= x27 (x91 x6 x40)))) (= x40 (x91 x149 x27))) (= x27 (x91 x149 x6))) (= x6 (x91 x149 x149))) (= (x91 x149 x40) x156)))) (= (x91 x40 x6) x156)))) (= (x91 x40 x156) x6))))) (= (x91 x156 x40) x6)) (= (x91 x156 x156) x27))))
(assert (or (or (or (and (not (= x156 (x91 x149 x156))) (and (and (not (= (x91 x149 x149) x149)) (and (not (= (x91 x149 x6) x6)) (not (= x27 (x91 x149 x27))))) (not (= (x91 x149 x40) x40)))) (or (and (not (= x156 (x91 x27 x156))) (and (not (= (x91 x27 x40) x40)) (and (and (not (= (x91 x27 x6) x6)) (not (= x27 (x91 x27 x27)))) (not (= (x91 x27 x149) x149))))) (and (not (= x156 (x91 x6 x156))) (and (and (not (= x149 (x91 x6 x149))) (and (not (= (x91 x6 x27) x27)) (not (= (x91 x6 x6) x6)))) (not (= (x91 x6 x40) x40)))))) (and (and (not (= (x91 x40 x40) x40)) (and (not (= x149 (x91 x40 x149))) (and (not (= x27 (x91 x40 x27))) (not (= x6 (x91 x40 x6)))))) (not (= x156 (x91 x40 x156))))) (and (and (not (= (x91 x156 x40) x40)) (and (and (not (= (x91 x156 x27) x27)) (not (= (x91 x156 x6) x6))) (not (= x149 (x91 x156 x149))))) (not (= x156 (x91 x156 x156))))))
(assert (or (= (x91 x156 x156) x156) (or (= (x91 x40 x40) x40) (or (= (x91 x149 x149) x149) (or (= x6 (x91 x6 x6)) (= (x91 x27 x27) x27))))))
(assert (let ((x146 (x91 x6 x6)) (x74 (x91 x156 x156)) (x51 (x91 x27 x27)) (x49 (x91 x149 x149)) (x66 (x91 x40 x40))) (let ((x19 (= x146 x6)) (x120 (= x149 x49)) (x137 (= x74 x156)) (x129 (= x27 x51)) (x147 (= x40 x66))) (let ((x12 (and (not (= x74 x149)) (and (and (and (not (= x149 x51)) (not (= x149 x146))) (not x120)) (not (= x149 x66))))) (x65 (and (and (and (and (not (= x27 x146)) (not x129)) (not (= x27 x49))) (not (= x27 x66))) (not (= x74 x27)))) (x114 (and (and (not (= x66 x156)) (and (and (not (= x156 x146)) (not (= x51 x156))) (not (= x49 x156)))) (not x137))) (x134 (and (and (and (not (= x49 x40)) (and (not (= x40 x51)) (not (= x40 x146)))) (not x147)) (not (= x74 x40)))) (x20 (and (not (= x74 x6)) (and (and (not (= x6 x49)) (and (not x19) (not (= x51 x6)))) (not (= x6 x66)))))) (or (or (or (or (or (and (= (x91 x149 x40) x149) x134) (or (or (and x65 (= x149 (x91 x149 x27))) (and (= (x91 x149 x6) x149) x20)) (and x120 x12))) (and (= (x91 x149 x156) x149) x114)) (or (or (or (or (or (and x20 (= x27 (x91 x27 x6))) (and x129 x65)) (and (= x27 (x91 x27 x149)) x12)) (and (= (x91 x27 x40) x27) x134)) (and x114 (= x27 (x91 x27 x156)))) (or (or (and (= x6 (x91 x6 x40)) x134) (or (or (and x65 (= (x91 x6 x27) x6)) (and x20 x19)) (and x12 (= x6 (x91 x6 x149))))) (and x114 (= (x91 x6 x156) x6))))) (or (or (or (or (and x65 (= (x91 x40 x27) x40)) (and (= x40 (x91 x40 x6)) x20)) (and (= x40 (x91 x40 x149)) x12)) (and x134 x147)) (and x114 (= x40 (x91 x40 x156))))) (or (or (and x134 (= x156 (x91 x156 x40))) (or (and (= (x91 x156 x149) x156) x12) (or (and x20 (= x156 (x91 x156 x6))) (and (= (x91 x156 x27) x156) x65)))) (and x114 x137)))))))
(assert (let ((x49 (x91 x40 x27)) (x142 (x91 x156 x40)) (x114 (x91 x6 x149)) (x65 (x91 x6 x6)) (x32 (x91 x6 x40)) (x137 (x91 x156 x149)) (x143 (x91 x40 x40)) (x28 (x91 x149 x40)) (x20 (x91 x40 x6)) (x153 (x91 x6 x156)) (x151 (x91 x27 x40)) (x74 (x91 x27 x6)) (x147 (x91 x40 x149)) (x19 (x91 x149 x6)) (x51 (x91 x6 x27)) (x66 (x91 x156 x27)) (x120 (x91 x149 x149)) (x134 (x91 x27 x149)) (x97 (x91 x27 x156)) (x26 (x91 x156 x156)) (x129 (x91 x27 x27)) (x8 (x91 x40 x156)) (x146 (x91 x149 x27)) (x4 (x91 x149 x156)) (x12 (x91 x156 x6))) (and (or (= x156 (x91 x26 x26)) (or (or (or (= (x91 x97 x97) x27) (= x6 (x91 x153 x153))) (= (x91 x4 x4) x149)) (= x40 (x91 x8 x8)))) (and (or (or (= (x91 x143 x143) x40) (or (= (x91 x28 x28) x149) (or (= (x91 x32 x32) x6) (= (x91 x151 x151) x27)))) (= (x91 x142 x142) x156)) (and (or (= (x91 x137 x137) x156) (or (or (or (= (x91 x134 x134) x27) (= x6 (x91 x114 x114))) (= x149 (x91 x120 x120))) (= (x91 x147 x147) x40))) (and (or (or (= x40 (x91 x49 x49)) (or (= x149 (x91 x146 x146)) (or (= (x91 x129 x129) x27) (= (x91 x51 x51) x6)))) (= (x91 x66 x66) x156)) (or (= (x91 x12 x12) x156) (or (or (= (x91 x19 x19) x149) (or (= (x91 x65 x65) x6) (= (x91 x74 x74) x27))) (= (x91 x20 x20) x40)))))))))
(assert (let ((x49 (x91 x40 x40)) (x66 (x91 x156 x156)) (x146 (x91 x149 x149)) (x51 (x91 x6 x6)) (x129 (x91 x27 x27))) (or (and (not (= x156 x66)) (and (not (= x49 x156)) (and (and (not (= x129 x156)) (not (= x156 x51))) (not (= x156 x146))))) (or (or (and (not (= x149 x66)) (and (and (and (not (= x149 x129)) (not (= x51 x149))) (not (= x149 x146))) (not (= x149 x49)))) (or (and (not (= x66 x6)) (and (and (not (= x146 x6)) (and (not (= x51 x6)) (not (= x6 x129)))) (not (= x49 x6)))) (and (and (and (not (= x27 x146)) (and (not (= x27 x129)) (not (= x51 x27)))) (not (= x49 x27))) (not (= x27 x66))))) (and (not (= x40 x66)) (and (not (= x49 x40)) (and (not (= x40 x146)) (and (not (= x129 x40)) (not (= x40 x51))))))))))
(assert (let ((x114 (x91 x149 x6)) (x28 (x91 x40 x149)) (x19 (x91 x6 x149)) (x32 (x91 x40 x6)) (x142 (x91 x40 x156)) (x66 (x91 x27 x156)) (x12 (x91 x6 x156)) (x120 (x91 x149 x149)) (x97 (x91 x156 x27)) (x134 (x91 x149 x27)) (x49 (x91 x27 x40)) (x147 (x91 x149 x40)) (x143 (x91 x40 x40)) (x153 (x91 x156 x6)) (x151 (x91 x40 x27)) (x8 (x91 x156 x40)) (x137 (x91 x149 x156)) (x129 (x91 x27 x27)) (x74 (x91 x6 x27)) (x20 (x91 x6 x40)) (x4 (x91 x156 x149)) (x146 (x91 x27 x149)) (x65 (x91 x6 x6)) (x51 (x91 x27 x6)) (x26 (x91 x156 x156))) (and (and (and (and (and (and (and (and (or (or (or (= x129 x149) (or (= x129 x6) (= x129 x27))) (= x40 x129)) (= x129 x156)) (or (= x51 x156) (or (= x40 x51) (or (= x51 x149) (or (= x51 x27) (= x6 x51)))))) (or (or (or (= x146 x149) (or (= x146 x6) (= x27 x146))) (= x40 x146)) (= x156 x146))) (or (or (or (= x149 x49) (or (= x49 x27) (= x49 x6))) (= x49 x40)) (= x49 x156))) (or (= x66 x156) (or (or (= x149 x66) (or (= x6 x66) (= x27 x66))) (= x66 x40)))) (and (or (= x12 x156) (or (= x40 x12) (or (or (= x12 x6) (= x12 x27)) (= x149 x12)))) (and (and (or (or (= x40 x19) (or (= x149 x19) (or (= x19 x6) (= x27 x19)))) (= x156 x19)) (and (or (= x156 x65) (or (= x40 x65) (or (= x149 x65) (or (= x65 x27) (= x65 x6))))) (or (= x74 x156) (or (= x74 x40) (or (= x74 x149) (or (= x74 x27) (= x6 x74))))))) (or (or (= x40 x20) (or (= x149 x20) (or (= x6 x20) (= x27 x20)))) (= x20 x156))))) (and (or (or (or (= x149 x137) (or (= x27 x137) (= x137 x6))) (= x137 x40)) (= x156 x137)) (and (or (= x147 x156) (or (= x40 x147) (or (= x147 x149) (or (= x6 x147) (= x27 x147))))) (and (or (or (= x40 x120) (or (or (= x120 x6) (= x27 x120)) (= x120 x149))) (= x120 x156)) (and (or (or (or (or (= x114 x6) (= x114 x27)) (= x149 x114)) (= x114 x40)) (= x156 x114)) (or (= x156 x134) (or (or (= x134 x149) (or (= x6 x134) (= x134 x27))) (= x40 x134)))))))) (and (and (and (and (or (or (= x40 x32) (or (= x149 x32) (or (= x32 x27) (= x6 x32)))) (= x32 x156)) (or (or (= x40 x151) (or (= x151 x149) (or (= x151 x27) (= x151 x6)))) (= x156 x151))) (or (= x28 x156) (or (= x28 x40) (or (or (= x28 x6) (= x27 x28)) (= x149 x28))))) (or (= x143 x156) (or (or (or (= x143 x6) (= x143 x27)) (= x149 x143)) (= x143 x40)))) (or (= x142 x156) (or (or (= x149 x142) (or (= x142 x27) (= x6 x142))) (= x40 x142))))) (and (and (and (or (or (or (= x149 x4) (or (= x6 x4) (= x27 x4))) (= x40 x4)) (= x156 x4)) (and (or (or (= x40 x97) (or (= x97 x149) (or (= x97 x27) (= x97 x6)))) (= x156 x97)) (or (or (= x40 x153) (or (or (= x153 x27) (= x6 x153)) (= x149 x153))) (= x156 x153)))) (or (= x8 x156) (or (= x40 x8) (or (= x8 x149) (or (= x6 x8) (= x27 x8)))))) (or (= x26 x156) (or (or (or (= x6 x26) (= x26 x27)) (= x26 x149)) (= x40 x26)))))))
(assert (let ((x9 (x91 x6 x6)) (x82 (x91 x40 x6)) (x127 (x91 x40 x149)) (x101 (x91 x27 x6)) (x34 (x91 x27 x27)) (x75 (x91 x156 x40)) (x117 (x91 x149 x27)) (x141 (x91 x6 x40)) (x121 (x91 x149 x40)) (x60 (x91 x156 x27)) (x68 (x91 x149 x156)) (x152 (x91 x6 x156)) (x67 (x91 x156 x149)) (x144 (x91 x149 x149)) (x50 (x91 x156 x156)) (x157 (x91 x40 x156)) (x87 (x91 x27 x149)) (x109 (x91 x6 x149)) (x53 (x91 x40 x40)) (x47 (x91 x149 x6)) (x48 (x91 x27 x40)) (x43 (x91 x6 x27)) (x38 (x91 x156 x6)) (x123 (x91 x27 x156)) (x102 (x91 x40 x27))) (let ((x66 (not (= x27 x117))) (x120 (not (= x27 x141))) (x92 (not (= x60 x156))) (x45 (not (= x6 x109))) (x70 (not (= x43 x6))) (x58 (not (= x149 x67))) (x51 (not (= x43 x27))) (x4 (not (= x27 x75))) (x147 (not (= x127 x27))) (x54 (not (= x48 x40))) (x116 (not (= x9 x6))) (x125 (not (= x149 x50))) (x31 (not (= x67 x40))) (x13 (not (= x6 x123))) (x97 (not (= x67 x27))) (x76 (not (= x121 x6))) (x78 (not (= x6 x102))) (x153 (not (= x68 x27))) (x1 (not (= x109 x149))) (x79 (not (= x6 x34))) (x130 (not (= x149 x123))) (x133 (not (= x149 x127))) (x89 (not (= x87 x40))) (x59 (not (= x9 x40))) (x94 (not (= x75 x156))) (x114 (not (= x82 x27))) (x154 (not (= x6 x53))) (x128 (not (= x117 x149))) (x5 (not (= x144 x149))) (x33 (not (= x127 x40))) (x55 (not (= x34 x156))) (x19 (not (= x109 x27))) (x129 (not (= x34 x27))) (x32 (not (= x27 x60))) (x72 (not (= x82 x149))) (x115 (not (= x149 x152))) (x81 (not (= x149 x68))) (x69 (not (= x6 x127))) (x71 (not (= x34 x149))) (x136 (not (= x9 x156))) (x57 (not (= x43 x149))) (x41 (not (= x34 x40))) (x134 (not (= x27 x48))) (x159 (not (= x48 x149))) (x113 (not (= x40 x38))) (x138 (not (= x102 x156))) (x20 (not (= x144 x27))) (x124 (not (= x40 x152))) (x35 (not (= x38 x6))) (x88 (not (= x50 x6))) (x98 (not (= x149 x101))) (x96 (not (= x157 x40))) (x100 (not (= x123 x156))) (x95 (not (= x109 x40))) (x26 (not (= x27 x50))) (x3 (not (= x157 x149))) (x83 (not (= x87 x156))) (x15 (not (= x149 x53))) (x148 (not (= x82 x6))) (x108 (not (= x149 x47))) (x131 (not (= x6 x60))) (x135 (not (= x6 x141))) (x25 (not (= x40 x47))) (x85 (not (= x156 x43))) (x46 (not (= x149 x60))) (x21 (not (= x47 x6))) (x143 (not (= x27 x38))) (x44 (not (= x48 x156))) (x151 (not (= x27 x53))) (x122 (not (= x149 x9))) (x80 (not (= x156 x152))) (x23 (not (= x40 x144))) (x73 (not (= x156 x109))) (x86 (not (= x47 x156))) (x84 (not (= x82 x156))) (x62 (not (= x156 x50))) (x2 (not (= x156 x101))) (x22 (not (= x40 x50))) (x74 (not (= x87 x27))) (x110 (not (= x40 x75))) (x52 (not (= x102 x40))) (x104 (not (= x40 x121))) (x111 (not (= x38 x156))) (x150 (not (= x75 x149))) (x64 (not (= x156 x117))) (x24 (not (= x60 x40))) (x61 (not (= x6 x68))) (x14 (not (= x141 x40))) (x30 (not (= x68 x156))) (x107 (not (= x6 x144))) (x11 (not (= x40 x101))) (x118 (not (= x6 x152))) (x28 (not (= x27 x123))) (x112 (not (= x87 x149))) (x106 (not (= x149 x38))) (x36 (not (= x87 x6))) (x145 (not (= x48 x6))) (x18 (not (= x53 x40))) (x139 (not (= x156 x67))) (x137 (not (= x121 x27))) (x37 (not (= x75 x6))) (x63 (not (= x149 x121))) (x39 (not (= x117 x6))) (x10 (not (= x149 x102))) (x90 (not (= x127 x156))) (x93 (not (= x123 x40))) (x12 (not (= x27 x102))) (x8 (not (= x27 x157))) (x103 (not (= x40 x82))) (x119 (not (= x156 x144))) (x16 (not (= x6 x67))) (x140 (not (= x141 x156))) (x142 (not (= x27 x152))) (x155 (not (= x6 x101))) (x17 (not (= x141 x149))) (x146 (not (= x27 x101))) (x99 (not (= x68 x40))) (x126 (not (= x6 x157))) (x65 (not (= x27 x47))) (x49 (not (= x27 x9))) (x105 (not (= x156 x53))) (x132 (not (= x157 x156))) (x158 (not (= x40 x117))) (x42 (not (= x121 x156))) (x56 (not (= x40 x43)))) (or (and (and (and (or x94 x132) (and (or x139 x30) (and (or x92 x100) (or x80 x111)))) (or x62 x62)) (and (and (and (and (or x42 x90) (and (and (or x64 x83) (or x86 x73)) (or x119 x119))) (or x139 x30)) (and (and (or x92 x100) (and (and (and (or x55 x55) (or x2 x85)) (or x64 x83)) (or x138 x44))) (and (or x80 x111) (and (or x140 x84) (and (and (or x85 x2) (or x136 x136)) (or x73 x86)))))) (and (or x94 x132) (and (or x105 x105) (and (and (or x140 x84) (or x44 x138)) (or x90 x42)))))) (or (or (or (and (and (and (or x8 x4) (and (and (or x147 x137) (and (or x114 x120) (or x134 x12))) (or x151 x151))) (and (and (and (or x28 x32) (and (and (and (or x129 x129) (or x51 x146)) (or x66 x74)) (or x12 x134))) (and (and (and (or x65 x19) (and (or x49 x49) (or x146 x51))) (or x120 x114)) (or x143 x142))) (and (and (or x147 x137) (and (and (or x65 x19) (or x66 x74)) (or x20 x20))) (or x153 x97)))) (and (or x26 x26) (and (and (or x153 x97) (and (or x32 x28) (or x143 x142))) (or x8 x4)))) (and (and (and (and (and (and (or x78 x145) (and (and (or x79 x79) (or x70 x155)) (or x36 x39))) (or x13 x131)) (and (and (and (and (or x116 x116) (or x155 x70)) (or x21 x45)) (or x135 x148)) (or x35 x118))) (and (or x16 x61) (and (and (or x107 x107) (and (or x39 x36) (or x21 x45))) (or x69 x76)))) (and (or x126 x37) (and (and (or x69 x76) (and (or x135 x148) (or x78 x145))) (or x154 x154)))) (and (or x88 x88) (and (and (or x16 x61) (and (or x35 x118) (or x131 x13))) (or x126 x37))))) (and (and (and (or x150 x3) (and (or x81 x58) (and (or x130 x46) (or x106 x115)))) (or x125 x125)) (and (and (and (or x81 x58) (and (and (and (or x1 x108) (or x128 x112)) (or x5 x5)) (or x63 x133))) (and (and (or x46 x130) (and (and (or x112 x128) (and (or x57 x98) (or x71 x71))) (or x159 x10))) (and (or x115 x106) (and (or x17 x72) (and (and (or x122 x122) (or x57 x98)) (or x1 x108)))))) (and (or x150 x3) (and (and (and (or x159 x10) (or x17 x72)) (or x133 x63)) (or x15 x15)))))) (and (and (and (or x110 x96) (and (or x18 x18) (and (or x104 x33) (and (or x14 x103) (or x54 x52))))) (and (and (and (and (or x103 x14) (and (and (or x56 x11) (or x59 x59)) (or x95 x25))) (or x124 x113)) (and (and (or x52 x54) (and (and (or x11 x56) (or x41 x41)) (or x158 x89))) (or x24 x93))) (and (or x31 x99) (and (or x33 x104) (and (or x23 x23) (and (or x89 x158) (or x25 x95))))))) (and (and (and (or x99 x31) (and (or x124 x113) (or x93 x24))) (or x96 x110)) (or x22 x22))))))))
(assert (not (and (= x27 (x91 x156 x156)) (and (and (and (= (x91 x156 x6) x40) (and (= x156 (x91 x156 x27)) (and (= (x91 x40 x156) x6) (and (= (x91 x40 x40) x149) (and (and (= (x91 x40 x6) x156) (and (and (and (= x40 (x91 x149 x40)) (and (= x6 (x91 x149 x149)) (and (and (and (and (and (and (= (x91 x6 x6) x6) (and (= (x91 x6 x27) x27) (and (= x40 (x91 x27 x156)) (and (and (and (= (x91 x27 x6) x149) (= (x91 x27 x27) x6)) (= (x91 x27 x149) x156)) (= (x91 x27 x40) x27))))) (= x40 (x91 x6 x149))) (= (x91 x6 x40) x156)) (= (x91 x6 x156) x149)) (= (x91 x149 x27) x149)) (= (x91 x149 x6) x27)))) (= x156 (x91 x149 x156))) (= (x91 x40 x27) x40))) (= (x91 x40 x149) x27)))))) (= (x91 x156 x149) x149)) (= x6 (x91 x156 x40))))))
(assert (and (and (and (= x27 (x91 x156 x156)) (= x6 (x91 x149 x149))) (= (x91 x40 x40) x149)) (= (x91 x40 x6) x156)))
(assert (let ((x32 (x91 x40 x6)) (x8 (x91 x156 x40)) (x12 (x91 x6 x156)) (x137 (x91 x149 x156)) (x20 (x91 x6 x40)) (x151 (x91 x40 x27)) (x49 (x91 x27 x40)) (x51 (x91 x27 x6)) (x4 (x91 x156 x149)) (x26 (x91 x156 x156)) (x146 (x91 x27 x149)) (x134 (x91 x149 x27)) (x147 (x91 x149 x40)) (x74 (x91 x6 x27)) (x129 (x91 x27 x27)) (x66 (x91 x27 x156)) (x120 (x91 x149 x149)) (x143 (x91 x40 x40)) (x114 (x91 x149 x6)) (x28 (x91 x40 x149)) (x153 (x91 x156 x6)) (x65 (x91 x6 x6)) (x142 (x91 x40 x156)) (x97 (x91 x156 x27)) (x19 (x91 x6 x149))) (or (and (not (= (x91 x26 x26) x156)) (and (and (not (= (x91 x4 x4) x149)) (and (not (= (x91 x97 x97) x27)) (not (= (x91 x153 x153) x6)))) (not (= x40 (x91 x8 x8))))) (or (or (and (not (= x156 (x91 x137 x137))) (and (and (not (= x149 (x91 x120 x120))) (and (not (= (x91 x114 x114) x6)) (not (= (x91 x134 x134) x27)))) (not (= (x91 x147 x147) x40)))) (or (and (and (not (= x40 (x91 x20 x20))) (and (and (not (= x6 (x91 x65 x65))) (not (= (x91 x74 x74) x27))) (not (= x149 (x91 x19 x19))))) (not (= x156 (x91 x12 x12)))) (and (and (not (= (x91 x49 x49) x40)) (and (and (not (= x27 (x91 x129 x129))) (not (= x6 (x91 x51 x51)))) (not (= (x91 x146 x146) x149)))) (not (= (x91 x66 x66) x156))))) (and (not (= x156 (x91 x142 x142))) (and (and (and (not (= (x91 x32 x32) x6)) (not (= (x91 x151 x151) x27))) (not (= x149 (x91 x28 x28)))) (not (= x40 (x91 x143 x143)))))))))
(assert (or (and (not (= (x91 x156 (x91 x156 x156)) x156)) (and (and (and (not (= x6 (x91 x156 (x91 x156 x6)))) (not (= (x91 x156 (x91 x156 x27)) x27))) (not (= (x91 x156 (x91 x156 x149)) x149))) (not (= x40 (x91 x156 (x91 x156 x40)))))) (or (and (and (not (= x40 (x91 x40 (x91 x40 x40)))) (and (not (= (x91 x40 (x91 x40 x149)) x149)) (and (not (= x6 (x91 x40 (x91 x40 x6)))) (not (= (x91 x40 (x91 x40 x27)) x27))))) (not (= x156 (x91 x40 (x91 x40 x156))))) (or (or (and (and (not (= (x91 x6 (x91 x6 x40)) x40)) (and (and (not (= x27 (x91 x6 (x91 x6 x27)))) (not (= x6 (x91 x6 (x91 x6 x6))))) (not (= (x91 x6 (x91 x6 x149)) x149)))) (not (= x156 (x91 x6 (x91 x6 x156))))) (and (and (not (= (x91 x27 (x91 x27 x40)) x40)) (and (not (= x149 (x91 x27 (x91 x27 x149)))) (and (not (= (x91 x27 (x91 x27 x6)) x6)) (not (= x27 (x91 x27 (x91 x27 x27))))))) (not (= x156 (x91 x27 (x91 x27 x156)))))) (and (not (= (x91 x149 (x91 x149 x156)) x156)) (and (and (not (= x149 (x91 x149 (x91 x149 x149)))) (and (not (= (x91 x149 (x91 x149 x6)) x6)) (not (= x27 (x91 x149 (x91 x149 x27)))))) (not (= (x91 x149 (x91 x149 x40)) x40))))))))
(assert (or (and (= x156 (x91 (x91 x156 x156) x156)) (and (and (and (= (x91 (x91 x6 x156) x156) x6) (= x27 (x91 (x91 x27 x156) x156))) (= x149 (x91 (x91 x149 x156) x156))) (= x40 (x91 (x91 x40 x156) x156)))) (or (and (= (x91 (x91 x156 x40) x40) x156) (and (= (x91 (x91 x40 x40) x40) x40) (and (= x149 (x91 (x91 x149 x40) x40)) (and (= x27 (x91 (x91 x27 x40) x40)) (= (x91 (x91 x6 x40) x40) x6))))) (or (and (= (x91 (x91 x156 x149) x149) x156) (and (and (and (= x27 (x91 (x91 x27 x149) x149)) (= x6 (x91 (x91 x6 x149) x149))) (= x149 (x91 (x91 x149 x149) x149))) (= x40 (x91 (x91 x40 x149) x149)))) (or (and (and (and (= x149 (x91 (x91 x149 x27) x27)) (and (= x6 (x91 (x91 x6 x27) x27)) (= (x91 (x91 x27 x27) x27) x27))) (= x40 (x91 (x91 x40 x27) x27))) (= (x91 (x91 x156 x27) x27) x156)) (and (= (x91 (x91 x156 x6) x6) x156) (and (and (= x149 (x91 (x91 x149 x6) x6)) (and (= x6 (x91 (x91 x6 x6) x6)) (= (x91 (x91 x27 x6) x6) x27))) (= (x91 (x91 x40 x6) x6) x40))))))))
(assert (and (and (not (= x156 x149)) (and (and (not (= x156 x6)) (and (not (= x6 x40)) (and (and (and (and (not (= x149 x27)) (not (= x6 x27))) (not (= x27 x40))) (not (= x156 x27))) (not (= x6 x149))))) (not (= x40 x149)))) (not (= x40 x156))))
(assert (let ((x153 (x91 x6 x156)) (x79 (x91 x156 x6)) (x1 (x91 x156 x40)) (x93 (x91 x156 x156)) (x66 (x91 x27 x40)) (x74 (x91 x27 x156)) (x152 (x91 x149 x149)) (x20 (x91 x149 x27)) (x146 (x91 x27 x6)) (x142 (x91 x6 x149)) (x51 (x91 x27 x27)) (x97 (x91 x6 x40)) (x49 (x91 x27 x149)) (x12 (x91 x40 x27)) (x57 (x91 x40 x40)) (x98 (x91 x40 x156)) (x144 (x91 x40 x149)) (x107 (x91 x156 x149)) (x39 (x91 x149 x156)) (x19 (x91 x6 x27)) (x134 (x91 x156 x27)) (x34 (x91 x40 x6)) (x143 (x91 x6 x6)) (x38 (x91 x149 x40)) (x26 (x91 x149 x6))) (let ((x102 (= x40 x143)) (x11 (= x156 x38)) (x76 (= x40 x152)) (x60 (= x156 x146)) (x151 (= x146 x27)) (x92 (= x134 x156)) (x136 (= x153 x149)) (x109 (= x27 x142)) (x121 (= x20 x149)) (x35 (= x34 x27)) (x140 (= x153 x40)) (x110 (= x6 x93)) (x103 (= x27 x98)) (x64 (= x39 x149)) (x50 (= x12 x6)) (x69 (= x40 x142)) (x58 (= x40 x38)) (x138 (= x40 x107)) (x59 (= x156 x57)) (x83 (= x149 x98)) (x108 (= x6 x57)) (x45 (= x6 x152)) (x56 (= x156 x97)) (x90 (= x40 x39)) (x21 (= x142 x6)) (x112 (= x38 x6)) (x24 (= x6 x1)) (x124 (= x6 x153)) (x17 (= x97 x149)) (x8 (= x143 x6)) (x16 (= x66 x27)) (x54 (= x39 x27)) (x87 (= x149 x143)) (x115 (= x97 x40)) (x46 (= x34 x40)) (x84 (= x74 x40)) (x154 (= x26 x156)) (x118 (= x27 x144)) (x116 (= x49 x27)) (x18 (= x6 x107)) (x37 (= x38 x27)) (x99 (= x98 x6)) (x129 (= x27 x51)) (x104 (= x79 x6)) (x132 (= x98 x156)) (x113 (= x74 x6)) (x14 (= x27 x93)) (x155 (= x27 x20)) (x148 (= x40 x26)) (x100 (= x79 x156)) (x75 (= x142 x156)) (x31 (= x6 x39)) (x68 (= x149 x49)) (x131 (= x152 x156)) (x159 (= x149 x144)) (x63 (= x57 x149)) (x81 (= x40 x57)) (x137 (= x19 x27)) (x106 (= x40 x66)) (x133 (= x38 x149)) (x32 (= x143 x27)) (x25 (= x107 x27)) (x67 (= x142 x149)) (x33 (= x134 x6)) (x9 (= x26 x27)) (x43 (= x146 x149)) (x126 (= x27 x57)) (x10 (= x34 x149)) (x114 (= x51 x149)) (x30 (= x153 x156)) (x157 (= x49 x156)) (x105 (= x40 x93)) (x120 (= x40 x51)) (x72 (= x66 x149)) (x158 (= x27 x134)) (x15 (= x12 x40)) (x22 (= x149 x79)) (x95 (= x1 x27)) (x4 (= x6 x146)) (x61 (= x27 x97)) (x88 (= x34 x6)) (x130 (= x40 x144)) (x101 (= x149 x19)) (x5 (= x149 x12)) (x119 (= x79 x40)) (x125 (= x144 x156)) (x147 (= x156 x51)) (x89 (= x27 x79)) (x150 (= x156 x12)) (x85 (= x1 x149)) (x94 (= x156 x39)) (x73 (= x40 x134)) (x82 (= x6 x26)) (x2 (= x149 x74)) (x141 (= x20 x6)) (x47 (= x152 x27)) (x139 (= x74 x156)) (x36 (= x49 x6)) (x145 (= x20 x40)) (x65 (= x6 x51)) (x52 (= x153 x27)) (x135 (= x49 x40)) (x123 (= x156 x19)) (x23 (= x27 x74)) (x78 (= x152 x149)) (x3 (= x156 x34)) (x71 (= x6 x144)) (x122 (= x66 x6)) (x44 (= x1 x40)) (x62 (= x156 x93)) (x80 (= x156 x1)) (x86 (= x93 x149)) (x117 (= x40 x19)) (x96 (= x149 x134)) (x55 (= x149 x107)) (x42 (= x40 x98)) (x28 (= x6 x19)) (x127 (= x26 x149)) (x70 (= x143 x156)) (x111 (= x156 x107)) (x53 (= x20 x156)) (x13 (= x27 x12)) (x41 (= x66 x156)) (x128 (= x97 x6)) (x48 (= x146 x40))) (and (and (and (and (and (and (and (or (or (or x145 (or x117 x120)) x15) x73) (or (or (or x135 (or x48 x120)) x106) x84)) (and (and (or (or x72 (or (or x43 x114) x68)) x2) (or (or x5 (or (or x114 x101) x121)) x96)) (and (and (or x113 (or x122 (or (or x65 x4) x36))) (or (or (or (or x65 x28) x141) x50) x33)) (and (or (or x13 (or x155 (or x137 x129))) x158) (or (or x16 (or (or x151 x129) x116)) x23))))) (and (or (or (or x157 (or x147 x60)) x41) x139) (or (or x150 (or (or x123 x147) x53)) x92))) (and (and (or (or x56 (or x75 (or x70 x123))) x30) (or (or (or (or x60 x70) x154) x3) x100)) (and (and (and (or (or x10 (or (or x87 x43) x127)) x22) (or (or (or (or x87 x101) x67) x17) x136)) (and (and (or (or (or x9 (or x151 x32)) x35) x89) (or (or (or x109 (or x137 x32)) x61) x52)) (and (or x124 (or x128 (or x21 (or x8 x28)))) (or x104 (or (or x82 (or x8 x4)) x88))))) (and (or x140 (or x115 (or (or x117 x102) x69))) (or x119 (or (or (or x102 x48) x148) x46)))))) (and (and (or (or (or x131 (or x75 x157)) x125) x111) (or (or x11 (or (or x154 x53) x131)) x94)) (and (and (and (and (or (or x71 (or (or x36 x21) x45)) x18) (or (or (or x45 (or x141 x82)) x112) x31)) (and (or x25 (or (or (or x116 x109) x47) x118)) (or (or (or (or x9 x155) x47) x37) x54))) (and (or x64 (or (or (or x127 x121) x78) x133)) (or (or x159 (or (or x68 x67) x78)) x55))) (and (or (or (or (or x135 x69) x76) x130) x138) (or (or (or x76 (or x145 x148)) x58) x90))))) (and (and (or (or (or x125 (or x3 x150)) x59) x132) (or x80 (or x59 (or (or x41 x56) x11)))) (and (and (and (or x83 (or x63 (or x159 (or x10 x5)))) (or (or (or x133 (or x72 x17)) x63) x85)) (and (and (or x99 (or x108 (or (or x50 x88) x71))) (or (or x108 (or x112 (or x128 x122))) x24)) (and (or x103 (or x126 (or x118 (or x13 x35)))) (or x95 (or (or x37 (or x16 x61)) x126))))) (and (or (or (or x130 (or x46 x15)) x81) x42) (or x44 (or x81 (or x58 (or x106 x115)))))))) (and (and (or x62 (or (or (or x30 x139) x94) x132)) (or x62 (or x80 (or (or x92 x100) x111)))) (and (and (or (or (or (or x73 x119) x138) x44) x105) (or x105 (or x42 (or (or x84 x140) x90)))) (and (and (or x86 (or (or (or x136 x2) x64) x83)) (or (or (or (or x22 x96) x55) x85) x86)) (and (and (or x14 (or (or (or x23 x52) x54) x103)) (or x14 (or (or x25 (or x89 x158)) x95))) (and (or (or (or (or x124 x113) x31) x99) x110) (or (or x24 (or x18 (or x33 x104))) x110))))))))))
(assert (or (and (not (= x156 (x91 (x91 x156 x156) x156))) (and (and (and (not (= (x91 (x91 x156 x27) x156) x27)) (not (= x6 (x91 (x91 x156 x6) x156)))) (not (= x149 (x91 (x91 x156 x149) x156)))) (not (= x40 (x91 (x91 x156 x40) x156))))) (or (and (and (not (= (x91 (x91 x40 x40) x40) x40)) (and (and (not (= (x91 (x91 x40 x27) x40) x27)) (not (= x6 (x91 (x91 x40 x6) x40)))) (not (= x149 (x91 (x91 x40 x149) x40))))) (not (= (x91 (x91 x40 x156) x40) x156))) (or (or (and (and (not (= x40 (x91 (x91 x6 x40) x6))) (and (not (= (x91 (x91 x6 x149) x6) x149)) (and (not (= x6 (x91 (x91 x6 x6) x6))) (not (= (x91 (x91 x6 x27) x6) x27))))) (not (= x156 (x91 (x91 x6 x156) x6)))) (and (not (= x156 (x91 (x91 x27 x156) x27))) (and (and (and (not (= (x91 (x91 x27 x27) x27) x27)) (not (= x6 (x91 (x91 x27 x6) x27)))) (not (= x149 (x91 (x91 x27 x149) x27)))) (not (= (x91 (x91 x27 x40) x27) x40))))) (and (not (= x156 (x91 (x91 x149 x156) x149))) (and (not (= x40 (x91 (x91 x149 x40) x149))) (and (not (= (x91 (x91 x149 x149) x149) x149)) (and (not (= (x91 (x91 x149 x27) x149) x27)) (not (= x6 (x91 (x91 x149 x6) x149)))))))))))
(assert (let ((x153 (x91 x6 x156)) (x74 (x91 x27 x6)) (x19 (x91 x149 x6)) (x146 (x91 x149 x27)) (x66 (x91 x156 x27)) (x137 (x91 x156 x149)) (x134 (x91 x27 x149)) (x65 (x91 x6 x6)) (x51 (x91 x6 x27)) (x120 (x91 x149 x149)) (x143 (x91 x40 x40)) (x26 (x91 x156 x156)) (x4 (x91 x149 x156)) (x114 (x91 x6 x149)) (x142 (x91 x156 x40)) (x20 (x91 x40 x6)) (x32 (x91 x6 x40)) (x12 (x91 x156 x6)) (x49 (x91 x40 x27)) (x28 (x91 x149 x40)) (x8 (x91 x40 x156)) (x97 (x91 x27 x156)) (x151 (x91 x27 x40)) (x129 (x91 x27 x27)) (x147 (x91 x40 x149))) (and (and (and (not (= x26 x142)) (and (and (and (and (and (not (= x137 x12)) (and (not (= x26 x66)) (and (and (not (= x137 x66)) (not (= x12 x66))) (not (= x66 x142))))) (not (= x142 x12))) (not (= x12 x26))) (not (= x137 x142))) (not (= x26 x137)))) (and (and (and (and (and (not (= x20 x8)) (and (and (and (not (= x49 x8)) (and (and (not (= x49 x20)) (not (= x49 x147))) (not (= x143 x49)))) (not (= x147 x20))) (not (= x20 x143)))) (not (= x143 x147))) (not (= x147 x8))) (not (= x8 x143))) (and (and (and (and (not (= x114 x153)) (and (and (not (= x153 x65)) (and (not (= x65 x32)) (and (and (and (and (not (= x114 x51)) (not (= x65 x51))) (not (= x51 x32))) (not (= x153 x51))) (not (= x114 x65))))) (not (= x32 x114)))) (not (= x32 x153))) (and (not (= x151 x97)) (and (not (= x134 x97)) (and (not (= x134 x151)) (and (and (and (and (and (and (not (= x129 x74)) (not (= x134 x129))) (not (= x129 x151))) (not (= x97 x129))) (not (= x134 x74))) (not (= x74 x151))) (not (= x74 x97))))))) (and (and (not (= x4 x120)) (and (not (= x120 x28)) (and (not (= x19 x4)) (and (and (not (= x120 x19)) (and (and (and (not (= x146 x120)) (not (= x146 x19))) (not (= x28 x146))) (not (= x146 x4)))) (not (= x28 x19)))))) (not (= x4 x28)))))) (and (and (not (= x26 x8)) (and (not (= x26 x4)) (and (and (and (not (= x153 x8)) (and (and (not (= x97 x26)) (and (not (= x97 x8)) (and (not (= x97 x153)) (not (= x4 x97))))) (not (= x4 x153)))) (not (= x153 x26))) (not (= x8 x4))))) (and (and (not (= x142 x143)) (and (and (and (not (= x142 x32)) (and (and (not (= x32 x28)) (and (not (= x142 x151)) (and (not (= x143 x151)) (and (not (= x32 x151)) (not (= x151 x28)))))) (not (= x32 x143)))) (not (= x143 x28))) (not (= x28 x142)))) (and (and (and (and (and (and (not (= x114 x147)) (and (and (not (= x134 x137)) (and (not (= x134 x147)) (and (not (= x134 x114)) (not (= x120 x134))))) (not (= x114 x120)))) (not (= x137 x114))) (not (= x147 x120))) (not (= x120 x137))) (not (= x147 x137))) (and (and (not (= x20 x12)) (and (and (not (= x19 x20)) (and (not (= x65 x12)) (and (not (= x20 x65)) (and (not (= x65 x19)) (and (and (not (= x74 x20)) (and (not (= x65 x74)) (not (= x19 x74)))) (not (= x74 x12))))))) (not (= x19 x12)))) (and (not (= x66 x49)) (and (and (and (not (= x66 x51)) (and (and (not (= x51 x146)) (and (not (= x66 x129)) (and (and (not (= x129 x51)) (not (= x129 x146))) (not (= x129 x49))))) (not (= x51 x49)))) (not (= x146 x49))) (not (= x66 x146)))))))))))
(check-sat)
(exit)
